(declare-fun var0 () String)
(assert (str.in.re var0 (re.++ (re.union (re.+ (str.to.re "&")) (re.+ (str.to.re "''"))) (re.++ (re.* (re.union (str.to.re "$$$") (str.to.re "%%%"))) (re.++ (re.+ (re.* (str.to.re "##"))) (re.++ (re.union (re.union (str.to.re "ZZZ") (str.to.re "!!!")) (re.+ (str.to.re """"))) (re.++ (re.* (re.+ (str.to.re "YY"))) (re.++ (re.* (re.* (str.to.re "X"))) (re.++ (re.+ (re.* (str.to.re "WW"))) (re.++ (re.+ (re.+ (str.to.re "VV"))) (re.++ (re.union (re.* (str.to.re "T")) (re.+ (str.to.re "UU"))) (re.++ (re.* (re.+ (str.to.re "SS"))) (re.++ (re.* (re.+ (str.to.re "RR"))) (re.++ (re.union (re.* (str.to.re "P")) (re.* (str.to.re "QQQ"))) (re.++ (re.* (re.union (str.to.re "N") (str.to.re "OOO"))) (re.++ (re.union (re.union (str.to.re "KKK") (str.to.re "LL")) (re.* (str.to.re "M"))) (re.++ (re.union (re.* (str.to.re "HH")) (re.union (str.to.re "III") (str.to.re "J"))) (re.++ (re.union (re.union (str.to.re "E") (str.to.re "FFF")) (re.+ (str.to.re "G"))) (re.++ (re.+ (re.* (str.to.re "D"))) (re.++ (re.union (re.* (str.to.re "BB")) (re.+ (str.to.re "CCC"))) (re.++ (re.+ (re.+ (str.to.re "AA"))) (re.++ (re.+ (re.union (str.to.re "y") (str.to.re "zz"))) (re.++ (re.union (re.union (str.to.re "u") (str.to.re "vv")) (re.union (str.to.re "w") (str.to.re "xx"))) (re.++ (re.union (re.* (str.to.re "sss")) (re.* (str.to.re "t"))) (re.++ (re.* (re.* (str.to.re "r"))) (re.++ (re.union (re.+ (str.to.re "p")) (re.+ (str.to.re "qq"))) (re.++ (re.* (re.+ (str.to.re "oo"))) (re.++ (re.union (re.+ (str.to.re "m")) (re.* (str.to.re "n"))) (re.++ (re.union (re.union (str.to.re "jjj") (str.to.re "k")) (re.* (str.to.re "ll"))) (re.++ (re.+ (re.* (str.to.re "ii"))) (re.++ (re.union (re.+ (str.to.re "gg")) (re.* (str.to.re "hh"))) (re.++ (re.+ (re.+ (str.to.re "f"))) (re.++ (re.union (re.+ (str.to.re "ddd")) (re.+ (str.to.re "ee"))) (re.++ (re.* (re.union (str.to.re "bbb") (str.to.re "cc"))) (re.++ (re.* (re.union (str.to.re "99") (str.to.re "a"))) (re.++ (re.union (re.union (str.to.re "555") (str.to.re "66")) (re.union (str.to.re "7") (str.to.re "88"))) (re.++ (re.* (re.+ (str.to.re "44"))) (re.++ (re.union (re.+ (str.to.re "222")) (re.* (str.to.re "333"))) (re.* (re.union (str.to.re "00") (str.to.re "1")))))))))))))))))))))))))))))))))))))))))
(check-sat)